NAME : B-n67-k10.617433.tour
COMMENT : Length = 617433
COMMENT : Found by LKH [Keld Helsgaun] Sun Dec 17 21:29:03 2017
TYPE : TOUR
DIMENSION : 76
TOUR_SECTION
1
6
16
57
56
55
76
32
19
27
3
42
30
25
60
70
18
8
36
50
2
37
40
68
47
5
15
51
12
20
21
72
10
49
64
26
22
74
63
62
31
58
4
61
73
29
14
59
13
46
53
23
71
54
43
45
41
65
35
7
69
67
52
33
66
38
24
9
75
34
48
17
44
28
11
39
-1
EOF
